\ This file has been generated by DOcplex
\ ENCODING=ISO-8859-1
\Problem name: random_problem.lp

Minimize
 obj: 7 x0 - 2 x1 + 2 x2 + 7 x3 + 9 x4 - 8 x5 + 9 x6 + 10 x7 - 4 x8 - 4 x9 + [
      - 12 x0*x2 + 2 x0*x5 - 10 x0*x6 + 20 x0*x8 - 18 x0*x9 + 4 x1*x3 + 20 x1*x4
      + 14 x1*x5 + 14 x1*x7 + 2 x1*x9 + 2 x2*x3 + 16 x2*x5 + 4 x2*x6 - 10 x2*x9
      - 10 x3*x5 - 8 x3*x6 + 20 x3*x7 + 8 x4*x6 - 8 x4*x7 + 8 x4*x8 + 6 x4*x9
      + 8 x5*x8 - 8 x6*x8 - 2 x7*x8 + 2 x7*x9 ]/2
Subject To
 c0: 2 x1 + 2 x3 + x5 + x6 + x8 = 0
 c1: - 2 x0 - x1 - x4 - x7 + x9 = -1

Bounds
 0 <= x0 <= 1
 0 <= x1 <= 1
 0 <= x2 <= 1
 0 <= x3 <= 1
 0 <= x4 <= 1
 0 <= x5 <= 1
 0 <= x6 <= 1
 0 <= x7 <= 1
 0 <= x8 <= 1
 0 <= x9 <= 1

Binaries
 x0 x1 x2 x3 x4 x5 x6 x7 x8 x9
End
